Argumentos: 
./solver.release -i 22 -t 86400 -a 7 -h 86400 -w Testes/Mvic-i22 -m modeloCom2345.mod -o modeloCom2345.mod 
Seed: 1622416830
hidden-TXT/Sc-n110w4.txt
hidden-TXT/H0-n110w4-0.txt
hidden-TXT/WD-n110w4-1.txt hidden-TXT/WD-n110w4-9.txt hidden-TXT/WD-n110w4-3.txt hidden-TXT/WD-n110w4-5.txt 
Reading model section from modeloCom2345.mod...
367 lines were read
Reading data section from Testes/Mvic-i22/22.dat...
19773 lines were read
Generating obj...
Generating H1turnoDia...
Generating H2coberturaMinima...
Generating H3AsucessaoTurnos...
Generating H3BsucessaoTurnos...
Generating H4qualificacao...
Generating S1coberturaOtima...
Generating S2d...
Generating S2dHist...
Generating S2b...
Generating S2bHist...
Generating aux1S2a...
Generating auxS2a...
Generating aux3S2a...
Generating aux4S2a...
Generating s2aMin2...
Generating s2aHistMin2...
Generating s2aMin3...
Generating s2aHistMin3h1...
Generating s2aHistMin3h2...
Generating s2aMin4...
Generating s2aHistMin4h1...
Generating s2aHistMin4h2...
Generating s2aHistMin4h3...
Generating s2aMin5...
Generating s2aHistMin5h1...
Generating s2aHistMin5h2...
Generating s2aHistMin5h3...
Generating s2aHistMin5h4...
Generating auxS2b...
Generating aux1S2b...
Generating aux3S2b...
Generating aux4S2b...
Generating s2b...
Generating s2bHist...
Generating s2bMin3turnos...
Generating s2bHistMin3h1turnos...
Generating s2bHistMin3h2turnos...
Generating s2bMin4...
Generating s2bHistMin4h1...
Generating s2bHistMin4h2...
Generating s2bHistMin4h3...
Generating s2bMin5...
Generating s2bHistMin5h1...
Generating s2bHistMin5h2...
Generating s2bHistMin5h3...
Generating s2bHistMin5h34...
Generating auxS5...
Generating S6a...
Generating S6b...
Generating auxS7...
Generating S7...
Model has been successfully generated
Writing problem data to `Testes/Mvic-i22/22.lp'...
716639 lines were written
CPX0000  Tried aggregator 2 times.
CPX0000  MIP Presolve eliminated 24337 rows and 51980 columns.
CPX0000  MIP Presolve modified 5957 coefficients.
CPX0000  Aggregator did 334 substitutions.
CPX0000  Reduced MIP has 69384 rows, 78984 columns, and 527916 nonzeros.
CPX0000  Reduced MIP has 78364 binaries, 620 generals, 0 SOSs, and 0 indicators.
CPX0000  Presolve time = 1.30 sec. (593.88 ticks)
CPX0000  Found incumbent of value 1504875.000000 after 4.56 sec. (2017.94 ticks)
[1m[30m[ZEN] [0m00:00:04 [1m[34m1504875.00[1m[32m  100.00%
[0mCPX0000  Probing time = 0.16 sec. (49.32 ticks)
CPX0000  Tried aggregator 2 times.
CPX0000  MIP Presolve eliminated 16 rows and 16 columns.
CPX0000  Aggregator did 1 substitutions.
CPX0000  Reduced MIP has 69367 rows, 78967 columns, and 527882 nonzeros.
CPX0000  Reduced MIP has 78347 binaries, 620 generals, 0 SOSs, and 0 indicators.
CPX0000  Presolve time = 0.73 sec. (377.39 ticks)
CPX0000  Probing time = 0.07 sec. (20.77 ticks)
CPX0000  Clique table members: 16874.
CPX0000  MIP emphasis: balance optimality and feasibility.
CPX0000  MIP search method: dynamic search.
CPX0000  Parallel mode: none, using 1 thread.
CPX0000  Root relaxation solution time = 381.50 sec. (78442.60 ticks)
CPX0000
CPX0000          Nodes                                         Cuts/
CPX0000     Node  Left     Objective  IInf  Best Integer    Best Bound    ItCnt     Gap
CPX0000
CPX0000  *     0+    0                      1504875.0000        0.0000    75065  100.00%
CPX0000        0     0      808.8360  7335  1504875.0000      808.8360    75065   99.95%
CPX0000        0     0     1038.9935  7713  1504875.0000    Cuts: 3711   120671   99.93%
CPX0000        0     0     1105.0408  7664  1504875.0000    Cuts: 3217   169652   99.93%
CPX0000        0     0     1137.1961  7771  1504875.0000    Cuts: 2676   214584   99.92%
CPX0000  *     0+    0                       329340.0000     1137.1961   214584   99.65%
[1m[30m[ZEN] [0m00:28:51 [1m[34m 329340.00[1m[32m   99.65%
[0mCPX0000        0     0     1148.6972  8161   329340.0000    Cuts: 2605   266527   99.65%
CPX0000        0     0     1163.3200  8283   329340.0000    Cuts: 2418   310809   99.65%
CPX0000        0     0     1207.1811  8651   329340.0000    Cuts: 2522   365807   99.63%
CPX0000        0     0     1239.6090  8937   329340.0000    Cuts: 2787   421786   99.62%
CPX0000        0     0     1255.8294  8799   329340.0000    Cuts: 2807   478181   99.62%
CPX0000        0     0     1268.5080  9158   329340.0000    Cuts: 2508   530468   99.61%
CPX0000        0     0     1285.5485  9087   329340.0000    Cuts: 2573   602714   99.61%
CPX0000        0     0     1298.2274  8686   329340.0000    Cuts: 2617   659380   99.61%
CPX0000        0     0     1310.6067  8824   329340.0000    Cuts: 2506   723935   99.60%
CPX0000        0     0     1324.1928  8907   329340.0000    Cuts: 2642   782688   99.60%
CPX0000        0     0     1339.0806  9058   329340.0000    Cuts: 2808   849749   99.59%
CPX0000        0     0     1349.3582  9162   329340.0000    Cuts: 2636   908308   99.59%
CPX0000        0     0     1359.9631  9626   329340.0000    Cuts: 2710   970262   99.59%
CPX0000        0     0     1375.9977  9419   329340.0000    Cuts: 2553  1027326   99.58%
CPX0000        0     0     1383.7945  9546   329340.0000    Cuts: 2636  1084929   99.58%
CPX0000        0     0     1395.3062  9513   329340.0000    Cuts: 2518  1147499   99.58%
CPX0000        0     0     1406.5682  9174   329340.0000    Cuts: 2552  1210793   99.57%
CPX0000        0     0     1418.4560  9360   329340.0000    Cuts: 2431  1275127   99.57%
CPX0000        0     0     1428.2215  9483   329340.0000    Cuts: 2573  1336173   99.57%
CPX0000        0     0     1435.7951  9516   329340.0000    Cuts: 2508  1397530   99.56%
CPX0000        0     0     1453.7124  9530   329340.0000    Cuts: 2350  1451198   99.56%
CPX0000        0     0     1463.5994  9140   329340.0000    Cuts: 2749  1528404   99.56%
CPX0000        0     0     1473.8857  9267   329340.0000    Cuts: 2417  1597001   99.55%
CPX0000        0     0     1481.8514  9247   329340.0000    Cuts: 2611  1657899   99.55%
CPX0000        0     0     1487.5641  9645   329340.0000    Cuts: 2487  1714056   99.55%
CPX0000        0     0     1493.9084  9486   329340.0000    Cuts: 2552  1778711   99.55%
CPX0000        0     0     1500.9419  9893   329340.0000    Cuts: 2565  1834227   99.54%
CPX0000        0     0     1512.9762 10034   329340.0000    Cuts: 2737  1898996   99.54%
CPX0000        0     0     1520.7717  9984   329340.0000    Cuts: 2540  1957956   99.54%
CPX0000        0     0     1534.8246  9820   329340.0000    Cuts: 2656  2018666   99.53%
CPX0000        0     0     1541.1050  9676   329340.0000    Cuts: 2595  2083654   99.53%
CPX0000        0     0     1549.8738  9269   329340.0000    Cuts: 2419  2144854   99.53%
CPX0000        0     0     1561.2727  9450   329340.0000    Cuts: 2383  2199577   99.53%
CPX0000        0     0     1566.8683  9710   329340.0000    Cuts: 2540  2259172   99.52%
CPX0000        0     0     1572.7621  9675   329340.0000    Cuts: 2496  2327968   99.52%
CPX0000        0     0     1579.5001  9643   329340.0000    Cuts: 2565  2387496   99.52%
CPX0000        0     0     1581.4776  9797   329340.0000    Cuts: 2495  2458558   99.52%
CPX0000        0     0     1589.9050  9928   329340.0000    Cuts: 2377  2518905   99.52%
CPX0000        0     0     1595.4558  9728   329340.0000    Cuts: 2493  2586929   99.52%
CPX0000        0     0     1603.5090 10012   329340.0000    Cuts: 2491  2649171   99.51%
CPX0000        0     0     1607.8092  9935   329340.0000    Cuts: 2384  2717691   99.51%
CPX0000        0     0     1617.0240  9793   329340.0000    Cuts: 2458  2785419   99.51%
CPX0000        0     0     1623.6875  9811   329340.0000    Cuts: 2464  2859403   99.51%
CPX0000        0     0     1632.4647  9454   329340.0000    Cuts: 2406  2919776   99.50%
CPX0000        0     0     1637.9767  9634   329340.0000    Cuts: 2392  2984670   99.50%
CPX0000        0     0     1650.2595  9577   329340.0000    Cuts: 2665  3044351   99.50%
CPX0000        0     0     1658.8273  9988   329340.0000    Cuts: 2686  3104922   99.50%
CPX0000        0     0     1666.6403  9655   329340.0000    Cuts: 2506  3160406   99.49%
CPX0000        0     0     1672.5591  9562   329340.0000    Cuts: 2508  3211464   99.49%
CPX0000        0     0     1677.6534  9201   329340.0000    Cuts: 2348  3273102   99.49%
CPX0000        0     0     1683.0086  9536   329340.0000    Cuts: 2833  3344163   99.49%
CPX0000        0     0     1693.8371  9585   329340.0000    Cuts: 2526  3412581   99.49%
CPX0000        0     0     1706.9112  9499   329340.0000    Cuts: 2459  3478775   99.48%
CPX0000        0     0     1715.4015  9445   329340.0000    Cuts: 2587  3563154   99.48%
CPX0000        0     0     1716.5662  9258   329340.0000    Cuts: 2513  3645042   99.48%
CPX0000        0     0     1720.0802  9712   329340.0000    Cuts: 2355  3714884   99.48%
CPX0000        0     0     1728.5304  9326   329340.0000    Cuts: 2299  3797511   99.48%
CPX0000        0     0     1738.9515  9266   329340.0000    Cuts: 2468  3882981   99.47%
CPX0000        0     0     1741.4095  9533   329340.0000    Cuts: 2560  3964868   99.47%
CPX0000        0     0     1751.0940  9346   329340.0000    Cuts: 2392  4039264   99.47%
CPX0000        0     0     1759.0095  9473   329340.0000    Cuts: 2417  4106997   99.47%
CPX0000        0     0     1763.9926  9114   329340.0000    Cuts: 2520  4169218   99.46%
CPX0000        0     0     1768.4773  9290   329340.0000    Cuts: 2267  4234460   99.46%
CPX0000        0     0     1771.3777  9172   329340.0000    Cuts: 2380  4292192   99.46%
CPX0000        0     0     1785.1452  9319   329340.0000    Cuts: 2438  4352460   99.46%
CPX0000        0     0     1794.8249  9308   329340.0000    Cuts: 2281  4416831   99.46%
CPX0000        0     0     1803.0057  8747   329340.0000    Cuts: 2142  4483367   99.45%
CPX0000        0     0     1807.0337  8765   329340.0000    Cuts: 2346  4554910   99.45%
CPX0000        0     0     1811.0923  8868   329340.0000    Cuts: 2276  4619184   99.45%
CPX0000        0     0     1815.3520  8887   329340.0000    Cuts: 2175  4700184   99.45%
CPX0000        0     0     1818.9779  8964   329340.0000    Cuts: 2097  4780313   99.45%
CPX0000        0     0     1822.5023  9073   329340.0000    Cuts: 2077  4843114   99.45%
CPX0000        0     0     1826.3910  8768   329340.0000    Cuts: 2320  4905660   99.45%
CPX0000        0     0     1828.2304  8735   329340.0000    Cuts: 2130  4976412   99.44%
CPX0000        0     0     1831.2567  9234   329340.0000    Cuts: 2172  5050126   99.44%
CPX0000        0     0     1832.2442  8901   329340.0000    Cuts: 2020  5120077   99.44%
CPX0000        0     0     1833.9453  9058   329340.0000    Cuts: 2182  5183081   99.44%
CPX0000        0     0     1835.1839  8791   329340.0000    Cuts: 1815  5248932   99.44%
CPX0000        0     0     1838.5824  9023   329340.0000    Cuts: 2255  5315425   99.44%
CPX0000        0     0     1840.5506  8578   329340.0000    Cuts: 2118  5387360   99.44%
CPX0000        0     0     1842.3023  8860   329340.0000    Cuts: 2170  5469342   99.44%
CPX0000        0     0     1844.3148  8595   329340.0000    Cuts: 2239  5537838   99.44%
CPX0000        0     0     1848.0001  8820   329340.0000    Cuts: 1966  5603017   99.44%
CPX0000        0     0     1854.2846  8785   329340.0000    Cuts: 1999  5663437   99.44%
CPX0000        0     0     1855.9009  9083   329340.0000    Cuts: 2366  5729595   99.44%
CPX0000        0     0     1858.6827  8827   329340.0000    Cuts: 2250  5818478   99.44%
CPX0000        0     0     1867.9405  8640   329340.0000    Cuts: 2361  5893654   99.43%
CPX0000        0     0     1870.0347  8405   329340.0000    Cuts: 2103  5953079   99.43%
CPX0000        0     0     1872.3633  8420   329340.0000    Cuts: 1903  6011868   99.43%
CPX0000        0     0     1875.8397  8481   329340.0000    Cuts: 2114  6064435   99.43%
CPX0000        0     0     1879.7692  8388   329340.0000    Cuts: 1870  6133483   99.43%
CPX0000        0     0     1883.2999  8725   329340.0000    Cuts: 2235  6188742   99.43%
CPX0000        0     0     1887.1973  8714   329340.0000    Cuts: 1720  6250835   99.43%
CPX0000        0     0     1891.4760  8766   329340.0000    Cuts: 1908  6304880   99.43%
CPX0000        0     0     1893.4203  8775   329340.0000    Cuts: 1924  6360324   99.43%
CPX0000        0     0     1894.8831  9005   329340.0000    Cuts: 1876  6419116   99.42%
CPX0000  Heuristic still looking.
CPX0000  Heuristic still looking.
CPX0000  Heuristic still looking.
CPX0000  *     0+    0                       119675.0000     1894.8831  6419116   98.42%
CPX0000  *     0+    0                        81685.0000     1894.8831  6419116   97.68%
CPX0000  *     0+    0                        17530.0000     1894.8831  6419116   89.19%
CPX0000  *     0+    0                         8465.0000     1894.8831  6419116   77.62%
CPX0000  *     0+    0                         8105.0000     1894.8831  6419116   76.62%
[1m[30m[ZEN] [0m21:24:06 [1m[34m   8105.00[1m[32m   76.62%
[0mCPX0000        0     2     1894.8831  9005     8105.0000     1894.8831  6419116   76.62%
CPX0000  Elapsed time = 77046.94 sec. (16459429.66 ticks, tree = 0.00 MB
CPX0000        1     3     1895.2328  8807     8105.0000     1894.8831  6424246   76.62%
CPX0000        2     4     1895.2843  8625     8105.0000     1894.8831  6428289   76.62%
CPX0000        3     5     1905.2843  7404     8105.0000     1894.8831  6465547   76.62%
CPX0000        5     7     1905.2843  7313     8105.0000     1894.8831  6573500   76.62%
CPX0000        6     8     1905.2843  7360     8105.0000     1894.8831  6678133   76.62%
CPX0000        7     9     1905.2843  7236     8105.0000     1894.8831  6680572   76.62%
CPX0000        8    10     1912.7595  7136     8105.0000     1894.8831  6688917   76.62%
CPX0000        9    11     1905.2843  7229     8105.0000     1894.8831  6692306   76.62%
CPX0000       10    12     1905.3746  7267     8105.0000     1894.8831  6704746   76.62%
CPX0000       11    13     1905.2861  7258     8105.0000     1894.8831  6711746   76.62%
CPX0000  Elapsed time = 79861.97 sec. (16995811.03 ticks, tree = 0.32 MB
CPX0000       12    14     1912.2491  7269     8105.0000     1894.8831  6717621   76.62%
CPX0000       15    17     1912.2491  7245     8105.0000     1894.8831  6725065   76.62%
CPX0000       16    18     1910.9118  7207     8105.0000     1894.8831  6732033   76.62%
CPX0000       17    19     1911.0208  7315     8105.0000     1894.8831  6738562   76.62%
CPX0000       20    22     1911.0101  6981     8105.0000     1894.8831  6742755   76.62%
CPX0000       24    26     1911.0333  7076     8105.0000     1894.8831  6748545   76.62%
CPX0000       25    27     1911.0117  6952     8105.0000     1894.8831  6751362   76.62%
CPX0000       27    29     1911.7696  6949     8105.0000     1894.8831  6759967   76.62%
CPX0000       29    31     1911.7739  6897     8105.0000     1894.8831  6767511   76.62%
CPX0000       30    32     1911.7739  6858     8105.0000     1894.8831  6769685   76.62%
CPX0000  Elapsed time = 81127.87 sec. (17222180.52 ticks, tree = 0.86 MB
CPX0000       34    36     1911.9676  6914     8105.0000     1894.8831  6775565   76.62%
CPX0000       35    37     1912.9117  7050     8105.0000     1894.8831  6782729   76.62%
CPX0000       36    38     1911.9676  6838     8105.0000     1894.8831  6788356   76.62%
CPX0000       37    39     1912.2322  6917     8105.0000     1894.8831  6795064   76.62%
CPX0000       38    40     1915.0902  6784     8105.0000     1894.8831  6802020   76.62%
CPX0000       41    43     1915.1557  6720     8105.0000     1894.8831  6805069   76.62%
CPX0000       44    46     1915.8247  6657     8105.0000     1894.8831  6809806   76.62%
CPX0000       45    47     1915.8324  6671     8105.0000     1894.8831  6812090   76.62%
CPX0000       46    48     1915.8556  6749     8105.0000     1894.8831  6814699   76.62%
CPX0000       50    52     1915.8651  6729     8105.0000     1894.8831  6818194   76.62%
CPX0000  Elapsed time = 81615.53 sec. (17306137.79 ticks, tree = 1.40 MB
CPX0000       51    53     1916.4888  6726     8105.0000     1894.8831  6825874   76.62%
CPX0000       52    54     1915.8651  6636     8105.0000     1894.8831  6944929   76.62%
CPX0000       53    55     1915.8651  6580     8105.0000     1894.8831  6993719   76.62%
CPX0000       55    57     1915.8651  6526     8105.0000     1894.8831  6995424   76.62%
CPX0000       57    59     1915.8651  6185     8105.0000     1894.8831  7004324   76.62%
CPX0000       58    60     1918.9086  6406     8105.0000     1894.8831  7147653   76.62%
CPX0000       59    61     1923.0753  6040     8105.0000     1894.8831  7151892   76.62%
CPX0000       60    62     1923.0753  6004     8105.0000     1894.8831  7178932   76.62%
CPX0000       61    63     1923.3308  5986     8105.0000     1894.8831  7185521   76.62%
CPX0000       62    64     1923.3308  5936     8105.0000     1894.8831  7194157   76.62%
CPX0000  Elapsed time = 84738.75 sec. (17872665.31 ticks, tree = 1.78 MB
CPX0000       63    65     1923.3308  5934     8105.0000     1894.8831  7200123   76.62%
CPX0000       64    66     1923.3308  5957     8105.0000     1894.8831  7232050   76.62%
CPX0000       65    67     1929.0232  5938     8105.0000     1894.8831  7251673   76.62%
CPX0000       66    68     1923.3308  5957     8105.0000     1894.8831  7251677   76.62%
CPX0000       68    70     1923.3389  5949     8105.0000     1894.8831  7253111   76.62%
CPX0000       69    71     1923.3308  5947     8105.0000     1894.8831  7253167   76.62%
CPX0000
CPX0000  GUB cover cuts applied:  551
CPX0000  Clique cuts applied:  621
CPX0000  Cover cuts applied:  4
CPX0000  Implied bound cuts applied:  21
CPX0000  Flow cuts applied:  1
CPX0000  Mixed integer rounding cuts applied:  104
CPX0000  Zero-half cuts applied:  6359
CPX0000  Lift and project cuts applied:  1
CPX0000  Gomory fractional cuts applied:  21
CPX0000
CPX0000  Root node processing (before b&c):
CPX0000    Real time             = 77046.82 sec. (16459352.49 ticks)
CPX0000  Sequential b&c:
CPX0000    Real time             = 9353.32 sec. (1716082.92 ticks)
CPX0000                            ------------
CPX0000  Total (root+branch&cut) = 86400.14 sec. (18175435.41 ticks)
H2 understaffing: 0
H3 shiftTypeSuccessions: 0
S1 optimalCoverage: 1020
S2a consecutiveShift: 705 = (47,0 )
S2b consecutiveWorkingDays: 900 = ( 26,4 )
S3 consecutiveDaysOff: 1920 = ( 15,49 )
S4 preferences: 300
S5 completeWeekend: 30
S6 totalAssignments: 3020
S7 totalWorkingWeekeends: 210
 

Cost Solution: 8105

       |M|T|W|T|F|S|S| |M|T|W|T|F|S|S| |M|T|W|T|F|S|S| |M|T|W|T|F|S|S|
------------------------------------------------------------------------
HN_0   |N|N|N|N|-|-|-| |E|E|E|E|-|-|-| |-|D|D|D|D|-|-| |-|N|N|N|N|-|-|
HN_1   |-|E|E|-|-|-|-| |D|D|-|-|-|-|-| |E|E|-|-|-|D|D| |D|D|-|-|-|-|-|
HN_2   |-|-|D|D|-|-|-| |-|-|-|L|L|-|-| |E|E|-|-|E|E|E| |L|L|-|-|-|-|-|
HN_3   |D|D|D|D|D|-|-| |D|D|D|-|L|L|L| |L|-|-|N|N|N|-| |-|-|E|E|E|E|D|
HN_4   |D|D|-|-|-|-|-| |E|E|E|-|-|-|-| |-|-|D|L|L|-|-| |-|-|-|-|D|D|E|
HN_5   |E|E|-|-|-|-|-| |N|-|D|D|D|-|-| |-|-|-|-|-|N|N| |N|N|-|-|-|-|-|
HN_6   |-|L|L|L|L|-|-| |-|L|L|L|L|-|-| |-|-|D|D|D|E|E| |E|-|-|-|-|N|N|
HN_7   |D|D|L|L|-|-|-| |-|N|-|-|-|-|-| |N|N|N|N|N|-|-| |-|-|L|L|L|L|L|
HN_8   |-|-|N|N|N|N|N| |-|-|-|-|D|D|E| |E|E|-|-|-|-|-| |D|D|L|L|L|-|-|
HN_9   |-|-|-|-|L|L|L| |L|L|-|-|-|-|-| |-|-|E|E|E|E|N| |-|L|L|L|L|-|-|
HN_10  |-|N|N|N|N|-|-| |-|E|E|E|E|-|-| |-|-|E|E|E|D|D| |D|-|-|-|-|N|N|
HN_11  |-|E|E|E|E|-|-| |-|-|-|D|D|-|-| |-|-|-|D|D|L|L| |-|-|-|-|-|-|-|
HN_12  |-|L|L|L|L|-|-| |-|-|-|-|E|E|D| |D|D|-|-|-|-|-| |N|N|N|N|N|-|-|
HN_13  |N|-|-|-|-|D|D| |D|E|E|-|-|-|-| |N|N|N|N|N|-|-| |-|E|E|E|E|-|-|
HN_14  |-|-|D|D|D|-|-| |-|-|-|-|-|-|-| |D|D|D|-|-|-|-| |-|E|E|E|E|-|-|
HN_15  |E|-|-|-|E|E|E| |E|-|-|-|N|N|N| |N|N|-|-|-|-|-| |E|E|D|D|-|-|-|
HN_16  |D|D|D|D|D|-|-| |N|N|N|N|N|-|-| |D|D|L|L|-|-|-| |D|D|D|L|L|-|-|
HN_17  |D|D|D|-|-|-|-| |L|-|-|-|-|-|-| |E|-|-|D|-|-|-| |N|-|-|-|-|E|E|
HN_18  |L|L|L|-|-|E|E| |E|E|D|D|-|-|-| |L|L|L|L|L|-|-| |L|L|L|L|L|-|-|
HN_19  |L|L|L|L|-|-|-| |L|L|L|L|L|-|-| |-|L|L|L|L|-|-| |-|E|E|-|-|-|-|
NU_20  |-|N|N|N|N|-|-| |-|-|-|-|-|D|D| |D|-|-|-|-|-|-| |N|N|N|N|-|-|-|
NU_21  |E|E|E|E|E|-|-| |D|D|L|L|L|-|-| |D|D|L|L|L|-|-| |N|N|N|N|-|-|-|
NU_22  |-|-|D|D|D|-|-| |N|N|N|N|N|-|-| |-|D|D|D|D|E|E| |-|-|N|N|N|N|N|
NU_23  |E|E|E|-|-|-|-| |-|-|D|D|E|E|E| |-|-|-|-|-|-|-| |L|L|L|-|-|-|-|
NU_24  |E|-|-|-|-|-|-| |E|E|E|-|-|-|-| |N|N|N|-|-|-|-| |-|-|-|E|N|N|N|
NU_25  |-|E|-|-|-|-|-| |N|-|-|-|-|-|-| |N|N|N|N|N|-|-| |-|D|D|D|D|-|-|
NU_26  |L|L|-|-|-|-|-| |-|N|N|N|N|N|-| |-|-|D|D|-|-|-| |D|D|-|-|-|-|-|
NU_27  |L|-|-|-|-|-|-| |L|L|L|N|N|N|-| |-|-|-|E|E|E|-| |D|D|-|-|-|-|-|
NU_28  |-|-|-|-|N|N|N| |N|N|-|-|-|-|-| |E|E|E|-|-|-|-| |-|-|D|D|D|-|-|
NU_29  |N|-|-|-|N|N|N| |N|-|-|-|D|D|D| |L|L|L|-|-|-|-| |N|N|N|N|-|-|-|
NU_30  |-|-|L|L|L|-|-| |-|-|E|E|E|-|-| |-|-|-|-|N|N|N| |N|N|-|-|-|-|-|
NU_31  |E|-|-|-|-|-|-| |L|L|L|L|L|-|-| |-|-|D|D|D|-|-| |-|-|-|-|-|D|D|
NU_32  |-|-|-|D|D|D|D| |D|-|-|D|L|L|L| |-|-|E|E|D|-|-| |-|E|E|E|E|-|-|
NU_33  |E|E|E|E|E|-|-| |D|N|N|N|N|-|-| |L|L|L|L|L|-|-| |E|E|L|L|L|-|-|
NU_34  |N|N|N|-|-|-|-| |-|-|-|D|D|-|-| |-|-|-|-|D|D|D| |-|-|-|-|-|-|-|
NU_35  |N|N|-|-|D|D|D| |D|-|-|-|N|N|N| |N|-|-|-|-|-|-| |-|E|E|D|D|-|-|
NU_36  |-|-|-|E|E|E|E| |E|-|-|-|-|-|-| |N|N|N|N|N|-|-| |-|-|-|-|-|-|-|
NU_37  |-|-|-|-|N|N|N| |N|-|-|-|-|-|-| |D|D|D|-|-|-|-| |D|D|L|L|-|-|-|
NU_38  |L|L|-|-|L|L|L| |L|-|-|E|E|-|-| |E|E|E|D|D|-|-| |E|E|E|-|L|L|N|
NU_39  |-|N|N|N|N|-|-| |-|L|L|L|L|-|-| |-|-|E|E|E|E|E| |-|-|-|-|E|E|L|
CT_40  |-|-|-|D|D|-|-| |D|D|-|-|-|-|-| |-|D|D|-|-|-|-| |-|L|L|-|-|-|E|
CT_41  |-|-|-|L|L|-|-| |-|-|-|E|E|-|-| |L|L|-|-|-|-|-| |D|D|-|-|-|-|E|
CT_42  |L|-|D|D|D|-|-| |N|N|N|N|N|-|-| |N|N|N|N|N|-|-| |N|N|N|N|N|-|-|
CT_43  |-|-|-|D|D|-|-| |-|-|-|L|L|-|-| |-|-|N|N|N|N|N| |-|-|-|-|-|-|-|
CT_44  |-|-|-|-|-|-|-| |-|-|-|-|-|-|-| |D|D|D|D|D|-|-| |-|L|L|L|L|-|-|
CT_45  |-|N|N|N|N|-|-| |-|-|D|D|L|L|L| |L|-|-|-|D|D|D| |D|L|L|-|-|-|-|
CT_46  |-|-|D|D|D|-|-| |-|-|-|-|-|-|-| |L|L|L|-|-|-|-| |D|D|D|D|D|-|-|
CT_47  |N|N|N|N|N|-|-| |L|L|L|L|L|-|-| |-|-|E|E|E|L|L| |-|-|N|N|N|N|N|
CT_48  |-|-|-|-|E|E|E| |E|-|-|-|-|-|-| |E|E|E|E|E|-|-| |-|-|D|D|D|-|-|
CT_49  |N|N|N|N|N|-|-| |E|E|E|D|D|-|-| |L|L|L|-|-|L|L| |L|L|-|-|E|E|D|
CT_50  |E|E|E|E|E|L|L| |-|-|-|-|D|D|D| |D|L|L|-|-|-|-| |N|N|N|N|-|-|-|
CT_51  |D|-|-|-|-|-|-| |L|L|L|-|-|-|-| |D|D|D|-|-|-|-| |-|-|E|E|E|E|D|
CT_52  |D|D|E|E|-|-|-| |N|N|N|N|N|-|-| |-|-|-|-|E|E|E| |D|D|D|-|-|-|-|
CT_53  |D|D|D|-|-|-|-| |D|D|D|-|-|-|-| |-|L|L|L|-|-|-| |-|-|-|E|E|-|-|
CT_54  |D|D|D|D|D|-|-| |N|N|N|N|N|-|-| |N|N|N|N|N|-|-| |-|N|N|N|N|-|-|
CT_55  |L|L|-|-|E|E|-| |-|-|-|D|D|-|-| |E|E|-|-|-|-|-| |L|L|-|-|-|-|-|
CT_56  |-|E|E|-|-|-|-| |L|L|-|-|-|-|-| |L|L|-|-|-|-|-| |-|-|E|E|D|D|D|
CT_57  |D|D|E|E|-|-|-| |E|E|E|E|-|-|-| |E|E|E|-|-|-|-| |-|-|L|L|L|L|L|
CT_58  |D|D|-|-|-|-|-| |L|L|-|-|-|-|-| |-|-|E|E|E|-|-| |-|-|-|-|-|L|L|
CT_59  |-|N|N|N|N|-|-| |-|D|D|D|D|D|D| |-|-|-|-|L|L|L| |L|L|-|-|-|-|-|
CT_60  |N|N|-|-|-|-|-| |N|N|N|N|N|-|-| |-|-|L|L|L|-|-| |-|-|-|-|-|D|D|
CT_61  |E|-|-|D|D|-|-| |-|-|-|D|D|-|-| |-|-|-|-|D|D|E| |E|-|-|-|-|-|-|
CT_62  |L|L|-|-|D|D|D| |-|-|D|D|D|-|-| |N|N|N|N|N|-|-| |-|-|N|N|N|N|N|
CT_63  |-|-|L|L|L|L|L| |-|-|-|-|-|E|E| |D|D|D|-|-|-|-| |E|E|E|E|E|-|-|
CT_64  |-|-|-|-|-|D|D| |D|-|-|-|-|-|-| |D|D|D|-|-|-|-| |L|L|L|L|L|-|-|
CT_65  |L|L|L|L|L|-|-| |D|D|D|D|D|-|-| |N|N|N|N|N|-|-| |-|-|L|L|L|L|L|
CT_66  |L|L|L|-|-|-|-| |L|L|L|L|L|-|-| |-|-|L|L|L|L|L| |-|-|-|-|E|E|E|
CT_67  |-|-|D|D|-|-|-| |L|L|-|-|-|-|L| |L|-|-|-|-|-|-| |E|E|-|-|-|-|-|
CT_68  |D|D|D|-|-|-|-| |D|D|E|E|E|-|-| |-|-|-|-|D|D|D| |-|-|-|-|-|-|-|
CT_69  |-|-|-|-|-|-|-| |E|E|E|-|-|-|-| |L|L|L|-|-|-|-| |L|L|L|L|L|-|-|
CT_70  |N|N|N|N|N|-|-| |-|-|-|-|-|-|-| |N|N|N|N|N|-|-| |-|D|D|D|D|-|-|
CT_71  |-|-|-|L|L|-|-| |N|N|N|N|N|-|-| |-|-|-|-|N|N|N| |N|-|-|-|-|-|-|
CT_72  |-|-|-|N|N|N|-| |-|-|-|E|E|-|-| |E|E|-|-|-|-|-| |D|D|-|-|-|-|-|
CT_73  |-|E|E|-|-|-|-| |-|-|-|L|L|L|-| |-|-|-|-|-|-|E| |E|-|-|-|-|-|-|
CT_74  |-|L|L|-|-|-|-| |D|D|E|E|E|-|-| |E|E|-|-|-|-|-| |L|L|-|-|-|-|-|
CT_75  |D|D|D|L|L|L|L| |-|-|-|-|E|E|D| |D|E|E|-|-|-|-| |D|D|D|D|-|-|-|
CT_76  |-|-|E|E|E|-|-| |E|E|E|E|E|-|-| |E|E|E|E|E|-|-| |-|D|D|D|D|-|-|
CT_77  |L|L|L|L|L|-|-| |L|L|L|L|L|-|-| |N|N|N|N|N|-|-| |N|N|N|N|N|-|-|
CT_78  |E|-|-|E|E|E|E| |E|-|-|-|E|E|E| |-|-|E|E|E|-|-| |E|E|E|D|D|-|-|
CT_79  |-|-|-|D|D|-|-| |-|-|-|-|N|N|N| |N|-|-|-|-|-|-| |E|E|E|-|-|-|-|
TR_80  |D|D|E|E|-|-|-| |-|D|D|L|L|-|-| |-|N|N|N|N|-|-| |-|D|D|L|L|-|-|
TR_81  |D|D|D|E|D|-|-| |-|-|-|-|-|-|-| |-|-|E|E|E|-|-| |-|-|-|-|E|E|E|
TR_82  |E|E|E|-|-|-|-| |-|D|D|E|E|-|-| |-|-|L|L|L|-|-| |-|-|-|-|N|-|-|
TR_83  |-|N|N|N|N|-|-| |-|-|-|D|D|D|E| |E|E|E|-|-|-|-| |N|N|N|N|-|-|-|
TR_84  |N|N|N|N|-|-|-| |-|E|E|D|D|-|-| |-|E|E|E|-|-|-| |-|L|L|L|L|-|-|
TR_85  |L|L|-|-|-|-|E| |E|-|-|-|-|-|-| |L|L|-|-|-|-|-| |L|L|-|-|-|-|-|
TR_86  |L|L|L|-|-|-|-| |D|D|D|-|-|-|-| |-|-|L|L|-|-|-| |-|-|-|-|E|E|D|
TR_87  |N|N|N|N|-|-|-| |L|L|L|L|-|-|-| |-|N|N|N|N|-|-| |-|E|E|D|D|-|-|
TR_88  |-|-|D|D|N|N|N| |N|-|-|-|-|E|E| |D|D|D|-|-|-|-| |L|L|L|L|-|-|-|
TR_89  |-|-|E|E|E|E|E| |-|-|D|D|D|-|-| |N|N|N|N|N|-|-| |E|E|E|-|-|E|E|
TR_90  |D|-|-|-|-|-|-| |D|D|D|-|-|-|-| |D|D|D|D|-|-|-| |N|N|N|N|N|-|-|
TR_91  |N|N|N|N|N|-|-| |N|N|N|N|N|-|-| |E|E|E|-|-|D|D| |L|L|-|-|D|D|D|
TR_92  |D|E|E|-|-|-|-| |N|N|N|N|N|-|-| |-|-|-|E|E|N|-| |-|-|-|L|L|-|-|
TR_93  |D|D|D|-|-|-|-| |L|L|L|L|L|-|-| |-|-|-|-|L|L|L| |-|-|-|-|-|-|-|
TR_94  |-|-|D|D|D|-|-| |-|-|-|L|L|L|L| |L|-|-|-|-|-|-| |-|E|E|E|E|-|-|
TR_95  |-|-|-|L|L|-|-| |-|-|-|-|L|L|-| |-|-|-|D|D|-|-| |-|-|-|E|E|-|-|
TR_96  |E|E|E|E|E|-|-| |-|-|-|N|N|N|N| |N|-|-|-|-|E|E| |E|E|E|-|-|-|-|
TR_97  |-|-|D|L|L|-|-| |N|N|N|N|N|-|-| |L|L|L|L|L|-|-| |D|D|D|D|D|-|-|
TR_98  |-|-|-|-|D|D|D| |D|E|E|-|-|-|-| |L|L|L|L|-|-|-| |D|D|D|D|D|-|-|
TR_99  |L|-|-|-|E|E|E| |E|-|-|-|E|E|D| |D|D|D|-|-|-|-| |D|D|D|D|-|-|-|
TR_100 |E|E|-|-|E|E|L| |L|-|E|E|E|-|-| |E|E|D|D|D|-|-| |N|N|N|-|N|N|N|
TR_101 |E|E|E|D|D|-|-| |E|E|E|E|E|-|-| |D|D|D|E|E|-|-| |N|N|N|N|N|-|-|
TR_102 |L|-|-|-|-|-|-| |L|L|-|-|-|-|-| |E|E|L|N|N|N|-| |N|-|D|E|L|L|L|
TR_103 |-|-|-|-|D|D|D| |D|-|-|-|-|-|-| |N|N|N|N|-|-|-| |L|L|L|-|-|-|-|
TR_104 |E|-|-|-|L|L|L| |L|L|-|-|D|D|D| |E|E|-|-|-|-|-| |D|D|D|E|E|-|-|
TR_105 |N|N|N|N|-|-|-| |L|L|L|L|L|-|-| |-|L|L|L|L|-|-| |-|-|-|-|-|-|-|
TR_106 |N|N|N|N|N|-|-| |E|E|E|-|-|L|L| |L|-|-|-|L|L|L| |-|-|D|D|D|-|-|
TR_107 |L|L|L|L|-|-|-| |D|D|D|D|-|-|-| |-|E|E|D|D|D|E| |E|-|-|-|-|-|-|
TR_108 |-|-|-|L|L|-|-| |-|-|N|N|N|N|-| |-|-|-|D|D|D|E| |E|-|-|E|E|L|L|
TR_109 |-|-|-|E|E|N|N| |N|N|N|-|-|-|-| |N|N|N|N|-|-|-| |-|N|N|N|N|-|-|


Hard constraint violations
--------------------------

Minimal coverage constraints: 0
Required skill constraints: 0
Illegal shift type succession constraints: 0
Single assignment per day: 0


Cost per constraint type
------------------------

Total assignment constraints: 3020
Consecutive constraints: 1605
Non working days constraints: 1920
Preferences: 300
Max working weekend: 210
Complete weekends: 30
Optimal coverage constraints: 1020

------------------------

Total cost: 8105
